NAME : ClusterId_260 
COMMENT : (Gillet and Johnson) 
TYPE : CVRP 
DIMENSION : 4 
EDGE_WEIGHT_TYPE : EUC_2D 
CAPACITY : 500 
NODE_COORD_SECTION 
260 40 -80 
36 37 -90 
240 44 -84 
193 51 -77 
DEMAND_SECTION 
260 200
36 9
240 96
193 89
DEPOT_SECTION 
260
 -1
EOF